100
150
100
98
96
96
94
93
93
92
91
91
90
89
89
86
86
85
84
83
82
82
79
79
79
79
77
75
75
75
74
74
74
74
71
71
70
68
68
67
66
63
63
62
62
60
59
59
58
55
54
54
52
49
48
47
47
46
45
44
43
43
42
40
39
39
37
37
36
35
34
33
28
26
26
25
25
23
22
21
20
19
19
19
18
17
17
16
12
12
12
10
10
9
9
8
7
7
7
6
3
2
